Minimize
  obj: 1.0000000000000000e+00 x0 + 1.0000000000000000e+00 x1 + 1.0000000000000000e+00 x2 + 1.0000000000000000e+00 x3 + 1.0000000000000000e+00 x4
Subject To
 C0_1 : 1.0000000000000000e+00 x0 + 2.0999999046325684e+00 x1 + 4.4099995994567962e+00 x2 + 9.2609987382889365e+00 x3 + 1.9448096467209101e+01 x4 >= 7.1661689281481813e+00
 C0_2 : 1.0000000000000000e+00 x0 + 2.0999999046325684e+00 x1 + 4.4099995994567962e+00 x2 + 9.2609987382889365e+00 x3 + 1.9448096467209101e+01 x4 <= 7.1661694049817006e+00
 C1_1 : 1.0000000000000000e+00 x0 + 2.1000001430511475e+00 x1 + 4.4100006008148398e+00 x2 + 9.2610018925668083e+00 x3 + 1.9448105299187247e+01 x4 >= 7.1661708354968141e+00
 C1_2 : 1.0000000000000000e+00 x0 + 2.1000001430511475e+00 x1 + 4.4100006008148398e+00 x2 + 9.2610018925668083e+00 x3 + 1.9448105299187247e+01 x4 <= 7.1661713123303334e+00
 C2_1 : 1.0000000000000000e+00 x0 + 2.1050004959106445e+00 x1 + 4.4310270877840594e+00 x2 + 9.3273142171789427e+00 x3 + 1.9634001052676080e+01 x4 >= 7.2071068286913951e+00
 C2_2 : 1.0000000000000000e+00 x0 + 2.1050004959106445e+00 x1 + 4.4310270877840594e+00 x2 + 9.3273142171789427e+00 x3 + 1.9634001052676080e+01 x4 <= 7.2071073055249126e+00
 C3_1 : 1.0000000000000000e+00 x0 + 2.1100010871887207e+00 x1 + 4.4521045879375833e+00 x2 + 9.3939455208261915e+00 x3 + 1.9821235261934877e+01 x4 >= 7.2482502460497935e+00
 C3_2 : 1.0000000000000000e+00 x0 + 2.1100010871887207e+00 x1 + 4.4521045879375833e+00 x2 + 9.3939455208261915e+00 x3 + 1.9821235261934877e+01 x4 <= 7.2482507228833111e+00
 C4_1 : 1.0000000000000000e+00 x0 + 2.1150014400482178e+00 x1 + 4.4732310914060349e+00 x2 + 9.4608901999922246e+00 x3 + 2.0009796397121626e+01 x4 >= 7.2895972728747438e+00
 C4_2 : 1.0000000000000000e+00 x0 + 2.1150014400482178e+00 x1 + 4.4732310914060349e+00 x2 + 9.4608901999922246e+00 x3 + 2.0009796397121626e+01 x4 <= 7.2895977497082631e+00
 C5_1 : 1.0000000000000000e+00 x0 + 2.1200020313262939e+00 x1 + 4.4944086128276126e+00 x2 + 9.5281553888049295e+00 x3 + 2.0199708779059023e+01 x4 >= 7.3311541080493052e+00
 C5_2 : 1.0000000000000000e+00 x0 + 2.1200020313262939e+00 x1 + 4.4944086128276126e+00 x2 + 9.5281553888049295e+00 x3 + 2.0199708779059023e+01 x4 <= 7.3311545848828228e+00
 C6_1 : 1.0000000000000000e+00 x0 + 2.1250023841857910e+00 x1 + 4.5156351327952962e+00 x2 + 9.5957354233031253e+00 x3 + 2.0390960652535192e+01 x4 >= 7.3729174137133677e+00
 C6_2 : 1.0000000000000000e+00 x0 + 2.1250023841857910e+00 x1 + 4.5156351327952962e+00 x2 + 9.5957354233031253e+00 x3 + 2.0390960652535192e+01 x4 <= 7.3729178905468853e+00
 C7_1 : 1.0000000000000000e+00 x0 + 2.1300029754638672e+00 x1 + 4.5369126754849276e+00 x2 + 9.6636374982026290e+00 x3 + 2.0583576624975802e+01 x4 >= 7.4148914814013560e+00
 C7_2 : 1.0000000000000000e+00 x0 + 2.1300029754638672e+00 x1 + 4.5369126754849276e+00 x2 + 9.6636374982026290e+00 x3 + 2.0583576624975802e+01 x4 <= 7.4148919582348736e+00
 C8_1 : 1.0000000000000000e+00 x0 + 2.1350033283233643e+00 x1 + 4.5582392119518431e+00 x2 + 9.7318558888112534e+00 x3 + 2.0777544713375359e+01 x4 >= 7.4570744037646373e+00
 C8_2 : 1.0000000000000000e+00 x0 + 2.1350033283233643e+00 x1 + 4.5582392119518431e+00 x2 + 9.7318558888112534e+00 x3 + 2.0777544713375359e+01 x4 <= 7.4570748805981548e+00
 C9_1 : 1.0000000000000000e+00 x0 + 2.1400039196014404e+00 x1 + 4.5796167759095283e+00 x2 + 9.8003978507189018e+00 x3 + 2.0972889814191980e+01 x4 >= 7.4994704723376344e+00
 C9_2 : 1.0000000000000000e+00 x0 + 2.1400039196014404e+00 x1 + 4.5796167759095283e+00 x2 + 9.8003978507189018e+00 x3 + 2.0972889814191980e+01 x4 <= 7.4994709491711538e+00
 C10_1 : 1.0000000000000000e+00 x0 + 2.1450042724609375e+00 x1 + 4.6010433288756758e+00 x2 + 9.8692575982162190e+00 x3 + 2.1169599714191360e+01 x4 >= 7.5420773029345591e+00
 C10_2 : 1.0000000000000000e+00 x0 + 2.1450042724609375e+00 x1 + 4.6010433288756758e+00 x2 + 9.8692575982162190e+00 x3 + 2.1169599714191360e+01 x4 <= 7.5420777797680767e+00
 C11_1 : 1.0000000000000000e+00 x0 + 2.1500048637390137e+00 x1 + 4.6225209141014147e+00 x2 + 9.9384424480533529e+00 x3 + 2.1367699601304977e+01 x4 >= 7.5849001407641490e+00
 C11_2 : 1.0000000000000000e+00 x0 + 2.1500048637390137e+00 x1 + 4.6225209141014147e+00 x2 + 9.9384424480533529e+00 x3 + 2.1367699601304977e+01 x4 <= 7.5849006175976665e+00
 C12_1 : 1.0000000000000000e+00 x0 + 2.1550054550170898e+00 x1 + 4.6440485111534144e+00 x2 + 1.0007949874899602e+01 x3 + 2.1567186573946245e+01 x4 >= 7.6279370784777711e+00
 C12_2 : 1.0000000000000000e+00 x0 + 2.1550054550170898e+00 x1 + 4.6440485111534144e+00 x2 + 1.0007949874899602e+01 x3 + 2.1567186573946245e+01 x4 <= 7.6279375553112905e+00
 C13_1 : 1.0000000000000000e+00 x0 + 2.1600058078765869e+00 x1 + 4.6656250900605869e+00 x2 + 1.0077777291905591e+01 x3 + 2.1768057481002860e+01 x4 >= 7.6711876392382701e+00
 C13_2 : 1.0000000000000000e+00 x0 + 2.1600058078765869e+00 x1 + 4.6656250900605869e+00 x2 + 1.0077777291905591e+01 x3 + 2.1768057481002860e+01 x4 <= 7.6711881160717876e+00
 C14_1 : 1.0000000000000000e+00 x0 + 2.1650063991546631e+00 x1 + 4.6872527083806403e+00 x2 + 1.0147932108099111e+01 x3 + 2.1970337952221648e+01 x4 >= 7.7146575450915407e+00
 C14_2 : 1.0000000000000000e+00 x0 + 2.1650063991546631e+00 x1 + 4.6872527083806403e+00 x2 + 1.0147932108099111e+01 x3 + 2.1970337952221648e+01 x4 <= 7.7146580219250600e+00
 C15_1 : 1.0000000000000000e+00 x0 + 2.1700067520141602e+00 x1 + 4.7089293037870448e+00 x2 + 1.0218408383975225e+01 x3 + 2.2174015188064342e+01 x4 >= 7.7583429813403209e+00
 C15_2 : 1.0000000000000000e+00 x0 + 2.1700067520141602e+00 x1 + 4.7089293037870448e+00 x2 + 1.0218408383975225e+01 x3 + 2.2174015188064342e+01 x4 <= 7.7583434581738384e+00
 C16_1 : 1.0000000000000000e+00 x0 + 2.1750073432922363e+00 x1 + 4.7306569433751520e+00 x2 + 1.0289213590437360e+01 x3 + 2.2379115115903534e+01 x4 >= 7.8022496700305055e+00
 C16_2 : 1.0000000000000000e+00 x0 + 2.1750073432922363e+00 x1 + 4.7306569433751520e+00 x2 + 1.0289213590437360e+01 x3 + 2.2379115115903534e+01 x4 <= 7.8022501468640248e+00
 C17_1 : 1.0000000000000000e+00 x0 + 2.1800076961517334e+00 x1 + 4.7524335552807884e+00 x2 + 1.0360341725961861e+01 x3 + 2.2585624697358792e+01 x4 >= 7.8463742733019899e+00
 C17_2 : 1.0000000000000000e+00 x0 + 2.1800076961517334e+00 x1 + 4.7524335552807884e+00 x2 + 1.0360341725961861e+01 x3 + 2.2585624697358792e+01 x4 <= 7.8463747501355092e+00
 C18_1 : 1.0000000000000000e+00 x0 + 2.1850082874298096e+00 x1 + 4.7742612161369493e+00 x2 + 1.0431800323613954e+01 x3 + 2.2793570159909461e+01 x4 >= 7.8907220363635133e+00
 C18_2 : 1.0000000000000000e+00 x0 + 2.1850082874298096e+00 x1 + 4.7742612161369493e+00 x2 + 1.0431800323613954e+01 x3 + 2.2793570159909461e+01 x4 <= 7.8907225131970327e+00
 C19_1 : 1.0000000000000000e+00 x0 + 2.1900086402893066e+00 x1 + 4.7961378445418177e+00 x2 + 1.0503583319565111e+01 x3 + 2.3002938223846233e+01 x4 >= 7.9352900981921266e+00
 C19_2 : 1.0000000000000000e+00 x0 + 2.1900086402893066e+00 x1 + 4.7961378445418177e+00 x2 + 1.0503583319565111e+01 x3 + 2.3002938223846233e+01 x4 <= 7.9352905750256459e+00
 C20_1 : 1.0000000000000000e+00 x0 + 2.1950092315673828e+00 x1 + 4.8180655266660324e+00 x2 + 1.0575698309328505e+01 x3 + 2.3213755419247629e+01 x4 >= 7.9800837039965709e+00
 C20_2 : 1.0000000000000000e+00 x0 + 2.1950092315673828e+00 x1 + 4.8180655266660324e+00 x2 + 1.0575698309328505e+01 x3 + 2.3213755419247629e+01 x4 <= 7.9800841808300884e+00
Bounds
  x0 free
  x1 free
  x2 free
  x3 free
  x4 free
End
